proyfinal/src/viki/013/experimentInOfficeAgust.take6.output/d1e24641-61f4-4634-97db-5b6ae3806564.als.dat
{'cnf.clauses': '118081',
 'cnf.totvars': '69608',
 'conflict literals': '58',
 'conflicts': '23',
 'decisions': '5476',
 'memused.mb': '16.35',
 'outcome': 'UNSAT',
 'propagations': '27091',
 'restarts': '1',
 'solver.msecs': 33,
 'task.msecs': 83}
