proyfinal/src/viki/013/experimentInOfficeAgust.take6.output/d1e24641-61f4-4634-97db-5b6ae3806564.als.out
Reading from standard input... Use '--help' for help.
============================[ Problem Statistics ]=============================
|                                                                             |
|  Number of variables:         69608                                         |
|  Number of clauses:          118081                                         |
|  Parse time:                   0.03 s                                       |
|                                                                             |
============================[ Search Statistics ]==============================
| Conflicts |          ORIGINAL         |          LEARNT          | Progress |
|           |    Vars  Clauses Literals |    Limit  Clauses Lit/Cl |          |
===============================================================================
===============================================================================
restarts              : 1
conflicts             : 23             (680 /sec)
decisions             : 5476           (0.00 % random) (161839 /sec)
propagations          : 27091          (800656 /sec)
conflict literals     : 58             (0.00 % deleted)
Memory used           : 16.35 MB
CPU time              : 0.033836 s

UNSATISFIABLE
